Normalized Data/p01_20_normalized_splitx10_0.vrp
NAME:p01_20_NORMALIZED_splitx10_
BEST_KNOWN: 0
COMMENT: 0
DIMENSION: 196
CAPACITY: 1000
EDGE_WEIGHT_FORMAT: FUNCTION
EDGE_WEIGHT_TYPE: EXACT_2D
NODE_COORD_SECTION
1 0.00000 0.00000
2 43 -8
3 43 -8
4 43 -8
5 43 -8
6 11 4
7 11 4
8 35 48
9 35 48
10 35 48
11 -36 -20
12 -36 -20
13 -36 -20
14 -32 8
15 -32 8
16 -32 8
17 -32 8
18 -32 8
19 -32 8
20 -32 8
21 -46 41
22 -46 41
23 -46 41
24 -46 41
25 42 -14
26 42 -14
27 -50 -6
28 -50 -6
29 -50 -6
30 -50 -6
31 -50 -6
32 -50 -6
33 -19 6
34 -19 6
35 -19 6
36 3 -45
37 3 -45
38 3 -45
39 3 -45
40 3 -45
41 -2 -21
42 -2 -21
43 -11 -35
44 -11 -35
45 -50 -32
46 -50 -32
47 -50 -32
48 -50 -32
49 -50 -32
50 34 -14
51 34 -14
52 34 -14
53 6 22
54 6 22
55 6 22
56 6 22
57 6 22
58 6 22
59 7 -21
60 7 -21
61 7 -21
62 7 -21
63 49 0
64 49 0
65 38 -4
66 38 -4
67 38 -4
68 38 -4
69 38 -4
70 30 21
71 30 21
72 -7 -8
73 -7 -8
74 -7 -8
75 0 1
76 0 1
77 0 1
78 0 1
79 0 1
80 -20 38
81 -20 38
82 -20 38
83 -20 38
84 -20 38
85 -20 38
86 -19 -20
87 -19 -20
88 -19 -20
89 -19 -20
90 50 22
91 17 40
92 -4 42
93 -4 42
94 -4 42
95 -4 42
96 -4 42
97 -4 42
98 -10 10
99 -10 10
100 -10 10
101 -10 10
102 -12 7
103 -12 7
104 2 37
105 2 37
106 2 37
107 -38 -6
108 -38 -6
109 -38 -6
110 -38 -6
111 -38 -6
112 -38 -6
113 9 50
114 9 50
115 9 50
116 -6 -22
117 -6 -22
118 -6 -22
119 -6 -22
120 16 15
121 16 15
122 16 15
123 16 15
124 16 15
125 16 15
126 -6 -39
127 -6 -39
128 24 -7
129 24 -7
130 24 -7
131 24 -7
132 36 13
133 36 13
134 -4 40
135 -4 40
136 -4 40
137 -3 -13
138 -3 -13
139 -3 -13
140 23 3
141 23 3
142 23 3
143 23 3
144 23 3
145 23 3
146 14 18
147 14 18
148 14 18
149 14 18
150 14 18
151 14 18
152 14 18
153 4 -30
154 4 -30
155 4 -30
156 4 -30
157 4 -30
158 4 -30
159 4 -30
160 -23 -13
161 -23 -13
162 -23 -13
163 -23 -13
164 -23 -13
165 -23 -13
166 -23 -13
167 5 11
168 5 11
169 5 11
170 46 48
171 46 48
172 46 48
173 46 48
174 46 48
175 46 48
176 -36 20
177 -36 20
178 -36 20
179 26 -42
180 26 -42
181 -11 -37
182 -11 -37
183 -11 -37
184 7 -7
185 7 -7
186 7 -7
187 7 -7
188 20 44
189 20 44
190 20 44
191 20 44
192 20 44
193 20 44
194 20 44
195 -3 8
196 -3 8
DEMAND_SECTION
1 0
2 200
3 50
4 10
5 10
6 200
7 10
8 200
9 50
10 10
11 200
12 50
13 10
14 200
15 200
16 50
17 10
18 10
19 10
20 10
21 200
22 10
23 10
24 10
25 200
26 50
27 200
28 100
29 50
30 10
31 10
32 10
33 200
34 10
35 10
36 200
37 200
38 10
39 10
40 10
41 100
42 50
43 200
44 200
45 100
46 10
47 10
48 10
49 10
50 200
51 200
52 50
53 100
54 50
55 10
56 10
57 10
58 10
59 200
60 100
61 10
62 10
63 200
64 10
65 100
66 50
67 10
68 10
69 10
70 100
71 50
72 200
73 200
74 10
75 200
76 50
77 10
78 10
79 10
80 200
81 100
82 10
83 10
84 10
85 10
86 200
87 10
88 10
89 10
90 200
91 200
92 200
93 100
94 50
95 10
96 10
97 10
98 200
99 100
100 10
101 10
102 200
103 200
104 200
105 10
106 10
107 200
108 50
109 10
110 10
111 10
112 10
113 200
114 10
115 10
116 200
117 200
118 50
119 10
120 200
121 200
122 50
123 10
124 10
125 10
126 200
127 10
128 200
129 200
130 50
131 10
132 100
133 50
134 200
135 200
136 10
137 200
138 50
139 10
140 100
141 50
142 10
143 10
144 10
145 10
146 200
147 200
148 50
149 10
150 10
151 10
152 10
153 200
154 100
155 50
156 10
157 10
158 10
159 10
160 200
161 100
162 50
163 10
164 10
165 10
166 10
167 200
168 100
169 50
170 200
171 200
172 50
173 10
174 10
175 10
176 100
177 10
178 10
179 200
180 50
181 200
182 200
183 50
184 200
185 200
186 10
187 10
188 200
189 100
190 50
191 10
192 10
193 10
194 10
195 200
196 50
DEPOT_SECTION
1
-1
EOF