Normalized Data/p01_20_normalized_splitx10_0.sol
195 -4 3 2 1 24 25 50 51 49 -5 142 143 144 141 140 139 127 183 184 186 -6 70 69 173 171 172 174 170 169 9 8 7 188 -28 29 26 30 31 27 48 46 47 44 45 12 10 11 160 163 -33 32 34 13 15 18 17 16 19 14 106 110 111 108 109 107 -40 126 125 37 35 38 36 39 178 179 185 -43 42 182 180 181 138 137 -55 56 54 52 53 57 94 92 96 91 93 95 135 134 133 -60 59 58 61 152 154 155 157 153 158 156 41 136 -71 73 72 74 77 75 -76 78 105 104 103 114 112 113 187 192 189 191 190 193 90 168 -101 102 97 100 99 98 195 194 -117 118 115 116 85 87 86 88 159 161 165 162 164 -123 121 122 119 120 124 146 145 150 149 147 148 151 -128 130 129 65 66 67 68 64 63 62 89 131 132 -167 166 82 84 83 79 80 81 20 22 23 21 175 176 177 0 





OBJ=
1428.703
BEST_KNOWN=
0.000